04/28/2026 09:03:00 PM INFO lbbd_cp_v1_solver - setup_solver_logging: ================================================================================
04/28/2026 09:03:00 PM INFO lbbd_cp_v1_solver - setup_solver_logging: Logging started. Log file: D:\Project_Code\Paper\DP_LBBD_1\DP_lbbd\Algorithm\Results\lbbd_cp_v1\small\exp_3f_15j_seed1\log\exp_3f_15j_seed1_running.log
04/28/2026 09:03:00 PM INFO lbbd_cp_v1_solver - print: Feasible pairs: 25/45
04/28/2026 09:03:00 PM INFO lbbd_cp_v1_solver - print: [Preprocess] Infeasible assignments detected: 0
04/28/2026 09:03:00 PM INFO lbbd_cp_v1_solver - print: [Preprocess] Unprofitable assignment detected: order 1 → factory 1
04/28/2026 09:03:00 PM INFO lbbd_cp_v1_solver - print: [Preprocess] Unprofitable assignment detected: order 6 → factory 1
04/28/2026 09:03:00 PM INFO lbbd_cp_v1_solver - print: [Preprocess] Unprofitable assignment detected: order 7 → factory 1
04/28/2026 09:03:00 PM INFO lbbd_cp_v1_solver - print: [Preprocess] Unprofitable assignment detected: order 15 → factory 1
04/28/2026 09:03:00 PM INFO lbbd_cp_v1_solver - print: [Preprocess] Unprofitable assignments: 4
04/28/2026 09:03:00 PM INFO lbbd_cp_v1_solver - print: [Preprocess] Unprofitable orders: 0
04/28/2026 09:03:00 PM INFO lbbd_cp_v1_solver - print: [Preprocess] High-risk orders: 6
04/28/2026 09:03:00 PM INFO lbbd_cp_v1_solver - print: [Preprocess] Pairwise conflicts detected: 0
04/28/2026 09:03:00 PM INFO lbbd_cp_v1_solver - print: [Master Modeling] Earliest completion lower bounds constraints: 1
04/28/2026 09:03:00 PM INFO lbbd_cp_v1_solver - print: [Master Modeling] Makespan-based delay bounds constraints: 8
04/28/2026 09:03:00 PM INFO lbbd_cp_v1_solver - print: 
04/28/2026 09:03:00 PM INFO lbbd_cp_v1_solver - print: [Model Statistics]
04/28/2026 09:03:00 PM INFO lbbd_cp_v1_solver - print:   Variables: 49
04/28/2026 09:03:00 PM INFO lbbd_cp_v1_solver - print:   Constraints: 24
04/28/2026 09:03:00 PM INFO lbbd_cp_v1_solver - print: 
04/28/2026 09:03:00 PM INFO lbbd_cp_v1_solver - print: [Preprocess Statistics]
04/28/2026 09:03:00 PM INFO lbbd_cp_v1_solver - print:   Infeasible eliminated: 0
04/28/2026 09:03:00 PM INFO lbbd_cp_v1_solver - print:   Unprofitable orders: 0
04/28/2026 09:03:00 PM INFO lbbd_cp_v1_solver - print:   Unprofitable assignments: 4
04/28/2026 09:03:00 PM INFO lbbd_cp_v1_solver - print:   Pairwise conflicts: 0
04/28/2026 09:03:00 PM INFO lbbd_cp_v1_solver - print:   Cluster conflicts: 0
04/28/2026 09:03:00 PM INFO lbbd_cp_v1_solver - print: 
04/28/2026 09:03:00 PM INFO lbbd_cp_v1_solver - print: [Master Enhancement Statistics]
04/28/2026 09:03:00 PM INFO lbbd_cp_v1_solver - print:   Capacity feasibility enhancement constrains: 0
04/28/2026 09:03:00 PM INFO lbbd_cp_v1_solver - print:   Lower bound delay cost enhancement constrains: 0
04/28/2026 09:03:00 PM INFO lbbd_cp_v1_solver - _callback: [Gurobi] Gurobi Optimizer version 10.0.1 build v10.0.1rc0 (win64)
04/28/2026 09:03:00 PM INFO lbbd_cp_v1_solver - _callback: [Gurobi] CPU model: Intel(R) Core(TM) Ultra 7 265KF, instruction set [SSE2|AVX|AVX2]
04/28/2026 09:03:00 PM INFO lbbd_cp_v1_solver - _callback: [Gurobi] Thread count: 20 physical cores, 20 logical processors, using up to 20 threads
04/28/2026 09:03:00 PM INFO lbbd_cp_v1_solver - _callback: [Gurobi] Optimize a model with 24 rows, 49 columns and 107 nonzeros
04/28/2026 09:03:00 PM INFO lbbd_cp_v1_solver - _callback: [Gurobi] Model fingerprint: 0x77682730
04/28/2026 09:03:00 PM INFO lbbd_cp_v1_solver - _callback: [Gurobi] Variable types: 9 continuous, 40 integer (40 binary)
04/28/2026 09:03:00 PM INFO lbbd_cp_v1_solver - _callback: [Gurobi] Coefficient statistics:
04/28/2026 09:03:00 PM INFO lbbd_cp_v1_solver - _callback: [Gurobi] Matrix range     [1e+00, 1e+03]
04/28/2026 09:03:00 PM INFO lbbd_cp_v1_solver - _callback: [Gurobi] Objective range  [1e+00, 3e+03]
04/28/2026 09:03:00 PM INFO lbbd_cp_v1_solver - _callback: [Gurobi] Bounds range     [1e+00, 1e+04]
04/28/2026 09:03:00 PM INFO lbbd_cp_v1_solver - _callback: [Gurobi] RHS range        [3e+03, 4e+03]
04/28/2026 09:03:00 PM INFO lbbd_cp_v1_solver - print: ***[Validated]*** obj=0.00, delay=0.00, bound=10000000000000000159028911097599180468360808563945281389781327557747838772170381060813469985856815104.00, gap=999999999999999977049513265245336628446842719924150006129995974731993452180789911303261294481511546880.00%, t=0.0s
04/28/2026 09:03:00 PM INFO lbbd_cp_v1_solver - _callback: [Gurobi] Found heuristic solution: objective -0.0000000
04/28/2026 09:03:00 PM INFO lbbd_cp_v1_solver - _callback: [Gurobi] Presolve removed 14 rows and 13 columns
04/28/2026 09:03:00 PM INFO lbbd_cp_v1_solver - _callback: [Gurobi] Presolve time: 0.00s
04/28/2026 09:03:00 PM INFO lbbd_cp_v1_solver - _callback: [Gurobi] Presolved: 10 rows, 36 columns, 50 nonzeros
04/28/2026 09:03:00 PM INFO lbbd_cp_v1_solver - _callback: [Gurobi] Variable types: 9 continuous, 27 integer (27 binary)
04/28/2026 09:03:00 PM INFO lbbd_cp_v1_solver - print: >>>Parallel subproblem time: 0.026s for 3 factories
04/28/2026 09:03:00 PM INFO lbbd_cp_v1_solver - print:  Added optimal optimality cut: factory=1, orders=[2, 3, 5, 11, 12], cost=2973.58, theta_est=0.00
04/28/2026 09:03:00 PM INFO lbbd_cp_v1_solver - print:  Added optimal optimality cut: factory=2, orders=[1, 4, 7, 8, 13], cost=444.07, theta_est=0.00
04/28/2026 09:03:00 PM INFO lbbd_cp_v1_solver - print:  Added optimal optimality cut: factory=3, orders=[6, 9, 14], cost=996.38, theta_est=0.00
04/28/2026 09:03:00 PM INFO lbbd_cp_v1_solver - print: ***[Validated]*** obj=2278.74, delay=4414.03, bound=11529.26, gap=405.95%, t=0.0s
04/28/2026 09:03:00 PM INFO lbbd_cp_v1_solver - _callback: [Gurobi] Root relaxation: objective 7.048411e+03, 12 iterations, 0.00 seconds (0.00 work units)
04/28/2026 09:03:00 PM INFO lbbd_cp_v1_solver - _callback: [Gurobi] Nodes    |    Current Node    |     Objective Bounds      |     Work
04/28/2026 09:03:00 PM INFO lbbd_cp_v1_solver - _callback: [Gurobi] Expl Unexpl |  Obj  Depth IntInf | Incumbent    BestBd   Gap | It/Node Time
04/28/2026 09:03:00 PM INFO lbbd_cp_v1_solver - _callback: [Gurobi] 0     0 7048.41092    0    4   -0.00000 7048.41092      -     -    0s
04/28/2026 09:03:00 PM INFO lbbd_cp_v1_solver - print: >>>Parallel subproblem time: 0.062s for 3 factories
04/28/2026 09:03:00 PM INFO lbbd_cp_v1_solver - print:  Added optimal optimality cut: factory=1, orders=[2, 5, 11, 12], cost=1344.03, theta_est=0.00
04/28/2026 09:03:00 PM INFO lbbd_cp_v1_solver - print:  Added optimal optimality cut: factory=2, orders=[1, 4, 7, 10, 15], cost=457.15, theta_est=0.00
04/28/2026 09:03:00 PM INFO lbbd_cp_v1_solver - print: ***[Validated]*** obj=4684.66, delay=1801.18, bound=7048.41, gap=50.46%, t=0.1s
04/28/2026 09:03:00 PM INFO lbbd_cp_v1_solver - print: >>>Parallel subproblem time: 0.016s for 3 factories
04/28/2026 09:03:00 PM INFO lbbd_cp_v1_solver - _callback: [Gurobi] H    0     0                    4684.6599334 7048.41092  50.5%     -    0s
04/28/2026 09:03:00 PM INFO lbbd_cp_v1_solver - print: >>>Parallel subproblem time: 0.016s for 3 factories
04/28/2026 09:03:00 PM INFO lbbd_cp_v1_solver - print:  Added optimal optimality cut: factory=3, orders=[3, 6, 8, 9], cost=904.38, theta_est=72.65
04/28/2026 09:03:01 PM INFO lbbd_cp_v1_solver - print: >>>Parallel subproblem time: 0.015s for 3 factories
04/28/2026 09:03:01 PM INFO lbbd_cp_v1_solver - print: ***[Validated]*** obj=4842.91, delay=1344.03, bound=7048.41, gap=45.54%, t=0.1s
04/28/2026 09:03:01 PM INFO lbbd_cp_v1_solver - _callback: [Gurobi] H    0     0                    4842.9060931 7048.41092  45.5%     -    0s
04/28/2026 09:03:01 PM INFO lbbd_cp_v1_solver - _callback: [Gurobi] 0     0 6848.69061    0    8 4842.90609 6848.69061  41.4%     -    0s
04/28/2026 09:03:01 PM INFO lbbd_cp_v1_solver - print: >>>Parallel subproblem time: 0.014s for 3 factories
04/28/2026 09:03:01 PM INFO lbbd_cp_v1_solver - print:  Added optimal optimality cut: factory=1, orders=[2, 3, 5, 12], cost=1341.87, theta_est=0.00
04/28/2026 09:03:01 PM INFO lbbd_cp_v1_solver - print:  Added optimal optimality cut: factory=2, orders=[1, 4, 7, 10, 13], cost=369.89, theta_est=0.00
04/28/2026 09:03:01 PM INFO lbbd_cp_v1_solver - print:  Added optimal optimality cut: factory=3, orders=[6, 8, 9, 11], cost=2040.05, theta_est=132.73
04/28/2026 09:03:01 PM INFO lbbd_cp_v1_solver - _callback: [Gurobi] 0     0 6832.73127    0    4 4842.90609 6832.73127  41.1%     -    0s
04/28/2026 09:03:01 PM INFO lbbd_cp_v1_solver - _callback: [Gurobi] 0     0 6831.98240    0    7 4842.90609 6831.98240  41.1%     -    0s
04/28/2026 09:03:01 PM INFO lbbd_cp_v1_solver - _callback: [Gurobi] 0     0 6675.67746    0   11 4842.90609 6675.67746  37.8%     -    0s
04/28/2026 09:03:01 PM INFO lbbd_cp_v1_solver - print: >>>Parallel subproblem time: 0.014s for 3 factories
04/28/2026 09:03:01 PM INFO lbbd_cp_v1_solver - print:  Added optimal optimality cut: factory=1, orders=[2, 3, 11, 12], cost=1173.74, theta_est=0.00
04/28/2026 09:03:01 PM INFO lbbd_cp_v1_solver - print:  Added optimal optimality cut: factory=2, orders=[1, 7, 10, 13, 15], cost=253.85, theta_est=5.99
04/28/2026 09:03:01 PM INFO lbbd_cp_v1_solver - print:  Added optimal optimality cut: factory=3, orders=[8, 9, 14], cost=1025.50, theta_est=8.61
04/28/2026 09:03:01 PM INFO lbbd_cp_v1_solver - _callback: [Gurobi] 0     0 6673.13957    0   12 4842.90609 6673.13957  37.8%     -    0s
04/28/2026 09:03:01 PM INFO lbbd_cp_v1_solver - _callback: [Gurobi] 0     0 6672.41650    0    6 4842.90609 6672.41650  37.8%     -    0s
04/28/2026 09:03:01 PM INFO lbbd_cp_v1_solver - _callback: [Gurobi] 0     0 6671.63026    0    6 4842.90609 6671.63026  37.8%     -    0s
04/28/2026 09:03:01 PM INFO lbbd_cp_v1_solver - _callback: [Gurobi] 0     0 6564.88236    0   16 4842.90609 6564.88236  35.6%     -    0s
04/28/2026 09:03:01 PM INFO lbbd_cp_v1_solver - print: >>>Parallel subproblem time: 0.014s for 3 factories
04/28/2026 09:03:01 PM INFO lbbd_cp_v1_solver - print:  Added optimal optimality cut: factory=1, orders=[2, 11, 12], cost=321.34, theta_est=0.00
04/28/2026 09:03:01 PM INFO lbbd_cp_v1_solver - print:  Added optimal optimality cut: factory=2, orders=[4, 7, 10, 13, 15], cost=391.12, theta_est=0.00
04/28/2026 09:03:01 PM INFO lbbd_cp_v1_solver - print:  Added optimal optimality cut: factory=3, orders=[3, 8, 9], cost=167.98, theta_est=0.00
04/28/2026 09:03:01 PM INFO lbbd_cp_v1_solver - print: ***[Validated]*** obj=5208.78, delay=880.44, bound=6564.88, gap=26.03%, t=0.2s
04/28/2026 09:03:01 PM INFO lbbd_cp_v1_solver - print: >>>Parallel subproblem time: 0.016s for 3 factories
04/28/2026 09:03:01 PM INFO lbbd_cp_v1_solver - _callback: [Gurobi] H    0     0                    5208.7827197 6564.88236  26.0%     -    0s
04/28/2026 09:03:01 PM INFO lbbd_cp_v1_solver - _callback: [Gurobi] 0     0 6466.62188    0   15 5208.78272 6466.62188  24.1%     -    0s
04/28/2026 09:03:01 PM INFO lbbd_cp_v1_solver - _callback: [Gurobi] 0     0 6448.99854    0   16 5208.78272 6448.99854  23.8%     -    0s
04/28/2026 09:03:01 PM INFO lbbd_cp_v1_solver - _callback: [Gurobi] 0     0 6445.19798    0   16 5208.78272 6445.19798  23.7%     -    0s
04/28/2026 09:03:01 PM INFO lbbd_cp_v1_solver - _callback: [Gurobi] 0     0 6441.25567    0   16 5208.78272 6441.25567  23.7%     -    0s
04/28/2026 09:03:01 PM INFO lbbd_cp_v1_solver - print: >>>Parallel subproblem time: 0.013s for 3 factories
04/28/2026 09:03:01 PM INFO lbbd_cp_v1_solver - print:  Added optimal optimality cut: factory=1, orders=[2, 5, 12], cost=178.70, theta_est=0.00
04/28/2026 09:03:01 PM INFO lbbd_cp_v1_solver - print:  Added optimal optimality cut: factory=2, orders=[1, 4, 7, 10, 13, 15], cost=1076.17, theta_est=457.15
04/28/2026 09:03:01 PM INFO lbbd_cp_v1_solver - _callback: [Gurobi] 0     0 6426.62114    0   16 5208.78272 6426.62114  23.4%     -    0s
04/28/2026 09:03:01 PM INFO lbbd_cp_v1_solver - _callback: [Gurobi] 0     0 6407.29348    0   16 5208.78272 6407.29348  23.0%     -    0s
04/28/2026 09:03:01 PM INFO lbbd_cp_v1_solver - _callback: [Gurobi] 0     0 6406.53584    0   16 5208.78272 6406.53584  23.0%     -    0s
04/28/2026 09:03:01 PM INFO lbbd_cp_v1_solver - _callback: [Gurobi] 0     0 6381.80871    0   16 5208.78272 6381.80871  22.5%     -    0s
04/28/2026 09:03:01 PM INFO lbbd_cp_v1_solver - _callback: [Gurobi] 0     0 6359.08229    0   16 5208.78272 6359.08229  22.1%     -    0s
04/28/2026 09:03:01 PM INFO lbbd_cp_v1_solver - _callback: [Gurobi] 0     0 6356.30686    0   15 5208.78272 6356.30686  22.0%     -    0s
04/28/2026 09:03:01 PM INFO lbbd_cp_v1_solver - _callback: [Gurobi] 0     0 6354.80126    0   15 5208.78272 6354.80126  22.0%     -    0s
04/28/2026 09:03:01 PM INFO lbbd_cp_v1_solver - _callback: [Gurobi] 0     0 6328.65185    0   16 5208.78272 6328.65185  21.5%     -    0s
04/28/2026 09:03:01 PM INFO lbbd_cp_v1_solver - print: >>>Parallel subproblem time: 0.012s for 3 factories
04/28/2026 09:03:01 PM INFO lbbd_cp_v1_solver - print:  Added optimal optimality cut: factory=3, orders=[3, 6, 8, 11], cost=1378.61, theta_est=0.00
04/28/2026 09:03:01 PM INFO lbbd_cp_v1_solver - _callback: [Gurobi] 0     0 6325.59459    0   16 5208.78272 6325.59459  21.4%     -    0s
04/28/2026 09:03:01 PM INFO lbbd_cp_v1_solver - _callback: [Gurobi] 0     0 6324.87959    0   16 5208.78272 6324.87959  21.4%     -    0s
04/28/2026 09:03:01 PM INFO lbbd_cp_v1_solver - _callback: [Gurobi] 0     0 6324.63180    0   16 5208.78272 6324.63180  21.4%     -    0s
04/28/2026 09:03:01 PM INFO lbbd_cp_v1_solver - _callback: [Gurobi] 0     0 6311.03665    0   15 5208.78272 6311.03665  21.2%     -    0s
04/28/2026 09:03:01 PM INFO lbbd_cp_v1_solver - print: >>>Parallel subproblem time: 0.062s for 3 factories
04/28/2026 09:03:01 PM INFO lbbd_cp_v1_solver - print:  Added optimal optimality cut: factory=1, orders=[3, 5, 11, 12], cost=874.40, theta_est=0.00
04/28/2026 09:03:01 PM INFO lbbd_cp_v1_solver - print:  Added optimal optimality cut: factory=3, orders=[6, 8, 9], cost=322.19, theta_est=0.00
04/28/2026 09:03:01 PM INFO lbbd_cp_v1_solver - _callback: [Gurobi] 0     0 6309.33424    0   15 5208.78272 6309.33424  21.1%     -    0s
04/28/2026 09:03:01 PM INFO lbbd_cp_v1_solver - _callback: [Gurobi] 0     0 6304.90387    0   16 5208.78272 6304.90387  21.0%     -    0s
04/28/2026 09:03:01 PM INFO lbbd_cp_v1_solver - _callback: [Gurobi] 0     0 6304.33810    0   16 5208.78272 6304.33810  21.0%     -    0s
04/28/2026 09:03:01 PM INFO lbbd_cp_v1_solver - _callback: [Gurobi] 0     0 6303.34115    0   16 5208.78272 6303.34115  21.0%     -    0s
04/28/2026 09:03:01 PM INFO lbbd_cp_v1_solver - _callback: [Gurobi] 0     0 6302.59965    0   16 5208.78272 6302.59965  21.0%     -    0s
04/28/2026 09:03:01 PM INFO lbbd_cp_v1_solver - _callback: [Gurobi] 0     0 6302.17686    0   16 5208.78272 6302.17686  21.0%     -    0s
04/28/2026 09:03:01 PM INFO lbbd_cp_v1_solver - _callback: [Gurobi] 0     0 6286.45433    0   16 5208.78272 6286.45433  20.7%     -    0s
04/28/2026 09:03:01 PM INFO lbbd_cp_v1_solver - _callback: [Gurobi] 0     0 6284.67681    0   15 5208.78272 6284.67681  20.7%     -    0s
04/28/2026 09:03:01 PM INFO lbbd_cp_v1_solver - _callback: [Gurobi] 0     0 6284.61039    0   16 5208.78272 6284.61039  20.7%     -    0s
04/28/2026 09:03:01 PM INFO lbbd_cp_v1_solver - _callback: [Gurobi] 0     0 6281.11042    0   15 5208.78272 6281.11042  20.6%     -    0s
04/28/2026 09:03:01 PM INFO lbbd_cp_v1_solver - _callback: [Gurobi] 0     0 6280.33678    0   15 5208.78272 6280.33678  20.6%     -    0s
04/28/2026 09:03:01 PM INFO lbbd_cp_v1_solver - _callback: [Gurobi] 0     0 6280.25598    0   16 5208.78272 6280.25598  20.6%     -    0s
04/28/2026 09:03:01 PM INFO lbbd_cp_v1_solver - _callback: [Gurobi] 0     0 6269.08352    0   16 5208.78272 6269.08352  20.4%     -    0s
04/28/2026 09:03:01 PM INFO lbbd_cp_v1_solver - _callback: [Gurobi] 0     0 6250.76588    0   14 5208.78272 6250.76588  20.0%     -    0s
04/28/2026 09:03:01 PM INFO lbbd_cp_v1_solver - _callback: [Gurobi] 0     0 6248.19566    0   15 5208.78272 6248.19566  20.0%     -    0s
04/28/2026 09:03:01 PM INFO lbbd_cp_v1_solver - _callback: [Gurobi] 0     0 6246.60439    0   15 5208.78272 6246.60439  19.9%     -    0s
04/28/2026 09:03:01 PM INFO lbbd_cp_v1_solver - _callback: [Gurobi] 0     0 6246.49998    0   15 5208.78272 6246.49998  19.9%     -    0s
04/28/2026 09:03:01 PM INFO lbbd_cp_v1_solver - _callback: [Gurobi] 0     0 6243.56778    0   15 5208.78272 6243.56778  19.9%     -    0s
04/28/2026 09:03:01 PM INFO lbbd_cp_v1_solver - _callback: [Gurobi] 0     0 6243.03869    0   16 5208.78272 6243.03869  19.9%     -    0s
04/28/2026 09:03:01 PM INFO lbbd_cp_v1_solver - _callback: [Gurobi] 0     0 6243.03869    0   16 5208.78272 6243.03869  19.9%     -    0s
04/28/2026 09:03:01 PM INFO lbbd_cp_v1_solver - print: >>>Parallel subproblem time: 0.025s for 3 factories
04/28/2026 09:03:01 PM INFO lbbd_cp_v1_solver - print:  Added optimal optimality cut: factory=1, orders=[5, 11, 12], cost=63.68, theta_est=0.00
04/28/2026 09:03:01 PM INFO lbbd_cp_v1_solver - print:  Added optimal optimality cut: factory=3, orders=[3, 6, 8, 14], cost=1494.34, theta_est=216.17
04/28/2026 09:03:01 PM INFO lbbd_cp_v1_solver - print: >>>Parallel subproblem time: 0.028s for 3 factories
04/28/2026 09:03:01 PM INFO lbbd_cp_v1_solver - print:  Added optimal optimality cut: factory=1, orders=[2, 3, 12], cost=141.54, theta_est=0.00
04/28/2026 09:03:01 PM INFO lbbd_cp_v1_solver - print:  Added optimal optimality cut: factory=3, orders=[8, 9, 11], cost=811.34, theta_est=0.00
04/28/2026 09:03:01 PM INFO lbbd_cp_v1_solver - print: >>>Parallel subproblem time: 0.014s for 3 factories
04/28/2026 09:03:01 PM INFO lbbd_cp_v1_solver - print: ***[Validated]*** obj=5328.30, delay=743.18, bound=6243.04, gap=17.17%, t=0.4s
04/28/2026 09:03:01 PM INFO lbbd_cp_v1_solver - _callback: [Gurobi] H    0     0                    5328.3004987 6243.03869  17.2%     -    0s
04/28/2026 09:03:01 PM INFO lbbd_cp_v1_solver - print: >>>Parallel subproblem time: 0.015s for 3 factories
04/28/2026 09:03:01 PM INFO lbbd_cp_v1_solver - print:  Added optimal optimality cut: factory=2, orders=[1, 8, 10, 13], cost=180.21, theta_est=0.00
04/28/2026 09:03:01 PM INFO lbbd_cp_v1_solver - print:  Added optimal optimality cut: factory=3, orders=[3, 6, 9, 11], cost=1350.37, theta_est=77.20
04/28/2026 09:03:01 PM INFO lbbd_cp_v1_solver - _callback: [Gurobi] 0     2 6243.03869    0   16 5328.30050 6243.03869  17.2%     -    0s
04/28/2026 09:03:01 PM INFO lbbd_cp_v1_solver - print: >>>Parallel subproblem time: 0.009s for 3 factories
04/28/2026 09:03:01 PM INFO lbbd_cp_v1_solver - print:  Added optimal optimality cut: factory=2, orders=[1, 7, 8, 10, 15], cost=781.84, theta_est=91.84
04/28/2026 09:03:01 PM INFO lbbd_cp_v1_solver - print:  Added optimal optimality cut: factory=3, orders=[3, 9, 14], cost=606.39, theta_est=0.00
04/28/2026 09:03:01 PM INFO lbbd_cp_v1_solver - print: >>>Parallel subproblem time: 0.016s for 3 factories
04/28/2026 09:03:01 PM INFO lbbd_cp_v1_solver - print:  Added optimal optimality cut: factory=2, orders=[1, 4, 7, 8, 10], cost=892.78, theta_est=209.23
04/28/2026 09:03:01 PM INFO lbbd_cp_v1_solver - print:  Added optimal optimality cut: factory=3, orders=[3, 6, 9, 13, 15], cost=939.31, theta_est=255.58
04/28/2026 09:03:01 PM INFO lbbd_cp_v1_solver - print: >>>Parallel subproblem time: 0.013s for 3 factories
04/28/2026 09:03:01 PM INFO lbbd_cp_v1_solver - print:  Added optimal optimality cut: factory=2, orders=[4, 7, 8, 10, 15], cost=913.08, theta_est=260.05
04/28/2026 09:03:01 PM INFO lbbd_cp_v1_solver - print:  Added optimal optimality cut: factory=3, orders=[3, 6, 9, 13], cost=292.51, theta_est=0.00
04/28/2026 09:03:01 PM INFO lbbd_cp_v1_solver - print: >>>Parallel subproblem time: 0.015s for 3 factories
04/28/2026 09:03:01 PM INFO lbbd_cp_v1_solver - print:  Added optimal optimality cut: factory=2, orders=[1, 7, 8, 10, 13], cost=698.41, theta_est=180.21
04/28/2026 09:03:01 PM INFO lbbd_cp_v1_solver - print:  Added optimal optimality cut: factory=3, orders=[9, 11, 14], cost=1533.73, theta_est=0.00
04/28/2026 09:03:01 PM INFO lbbd_cp_v1_solver - print: >>>Parallel subproblem time: 0.014s for 3 factories
04/28/2026 09:03:01 PM INFO lbbd_cp_v1_solver - print:  Added optimal optimality cut: factory=2, orders=[7, 8, 10, 13, 15], cost=718.70, theta_est=118.51
04/28/2026 09:03:01 PM INFO lbbd_cp_v1_solver - print: >>>Parallel subproblem time: 0.015s for 3 factories
04/28/2026 09:03:01 PM INFO lbbd_cp_v1_solver - print:  Added optimal optimality cut: factory=3, orders=[6, 8, 13, 14], cost=946.54, theta_est=0.00
04/28/2026 09:03:01 PM INFO lbbd_cp_v1_solver - print: >>>Parallel subproblem time: 0.017s for 3 factories
04/28/2026 09:03:01 PM INFO lbbd_cp_v1_solver - print:  Added optimal optimality cut: factory=2, orders=[1, 4, 7, 8, 10, 15], cost=1829.36, theta_est=913.08
04/28/2026 09:03:01 PM INFO lbbd_cp_v1_solver - print:  Added optimal optimality cut: factory=3, orders=[6, 9, 11, 13], cost=632.32, theta_est=0.00
04/28/2026 09:03:01 PM INFO lbbd_cp_v1_solver - print: >>>Parallel subproblem time: 0.014s for 3 factories
04/28/2026 09:03:01 PM INFO lbbd_cp_v1_solver - print:  Added optimal optimality cut: factory=2, orders=[1, 7, 8, 10], cost=302.41, theta_est=41.52
04/28/2026 09:03:01 PM INFO lbbd_cp_v1_solver - print:  Added optimal optimality cut: factory=3, orders=[3, 6, 9, 15], cost=673.81, theta_est=0.00
04/28/2026 09:03:01 PM INFO lbbd_cp_v1_solver - print: >>>Parallel subproblem time: 0.014s for 3 factories
04/28/2026 09:03:01 PM INFO lbbd_cp_v1_solver - print:  Added optimal optimality cut: factory=2, orders=[7, 8, 10, 15], cost=322.71, theta_est=41.45
04/28/2026 09:03:01 PM INFO lbbd_cp_v1_solver - print: >>>Parallel subproblem time: 0.014s for 3 factories
04/28/2026 09:03:01 PM INFO lbbd_cp_v1_solver - print:  Added optimal optimality cut: factory=1, orders=[2, 3, 10, 12], cost=2185.89, theta_est=141.54
04/28/2026 09:03:01 PM INFO lbbd_cp_v1_solver - print:  Added optimal optimality cut: factory=2, orders=[1, 4, 7, 8, 15], cost=527.51, theta_est=0.00
04/28/2026 09:03:01 PM INFO lbbd_cp_v1_solver - print:  Added optimal optimality cut: factory=3, orders=[6, 11, 13, 14], cost=1198.85, theta_est=0.00
04/28/2026 09:03:01 PM INFO lbbd_cp_v1_solver - print: >>>Parallel subproblem time: 0.015s for 3 factories
04/28/2026 09:03:01 PM INFO lbbd_cp_v1_solver - print:  Added optimal optimality cut: factory=3, orders=[6, 8, 14], cost=862.01, theta_est=0.00
04/28/2026 09:03:01 PM INFO lbbd_cp_v1_solver - print: >>>Parallel subproblem time: 0.015s for 3 factories
04/28/2026 09:03:01 PM INFO lbbd_cp_v1_solver - print:  Added optimal optimality cut: factory=3, orders=[3, 8, 11, 15], cost=1682.05, theta_est=0.00
04/28/2026 09:03:01 PM INFO lbbd_cp_v1_solver - print: >>>Parallel subproblem time: 0.015s for 3 factories
04/28/2026 09:03:01 PM INFO lbbd_cp_v1_solver - print:  Added optimal optimality cut: factory=1, orders=[2, 5, 10, 12], cost=2249.84, theta_est=178.70
04/28/2026 09:03:01 PM INFO lbbd_cp_v1_solver - print:  Added optimal optimality cut: factory=2, orders=[1, 7, 8, 13, 15], cost=333.13, theta_est=0.00
04/28/2026 09:03:01 PM INFO lbbd_cp_v1_solver - print:  Added optimal optimality cut: factory=3, orders=[3, 6, 11, 14], cost=1940.77, theta_est=220.72
04/28/2026 09:03:01 PM INFO lbbd_cp_v1_solver - print: >>>Parallel subproblem time: 0.064s for 3 factories
04/28/2026 09:03:01 PM INFO lbbd_cp_v1_solver - print:  Added optimal optimality cut: factory=2, orders=[4, 7, 8, 10, 13], cost=829.65, theta_est=235.90
04/28/2026 09:03:01 PM INFO lbbd_cp_v1_solver - print:  Added optimal optimality cut: factory=3, orders=[3, 6, 14, 15], cost=1249.60, theta_est=0.00
04/28/2026 09:03:01 PM INFO lbbd_cp_v1_solver - print: >>>Parallel subproblem time: 0.014s for 3 factories
04/28/2026 09:03:01 PM INFO lbbd_cp_v1_solver - print:  Added optimal optimality cut: factory=1, orders=[3, 5, 10, 12], cost=1530.54, theta_est=0.00
04/28/2026 09:03:01 PM INFO lbbd_cp_v1_solver - print:  Added optimal optimality cut: factory=2, orders=[4, 7, 8, 13, 15], cost=464.37, theta_est=0.00
04/28/2026 09:03:01 PM INFO lbbd_cp_v1_solver - print:  Added optimal optimality cut: factory=3, orders=[6, 9, 11], cost=632.32, theta_est=0.00
04/28/2026 09:03:01 PM INFO lbbd_cp_v1_solver - print: >>>Parallel subproblem time: 0.015s for 3 factories
04/28/2026 09:03:01 PM INFO lbbd_cp_v1_solver - print:  Added optimal optimality cut: factory=2, orders=[4, 7, 8, 10], cost=582.53, theta_est=0.00
04/28/2026 09:03:01 PM INFO lbbd_cp_v1_solver - print:  Added optimal optimality cut: factory=3, orders=[6, 11, 14, 15], cost=1565.84, theta_est=0.00
04/28/2026 09:03:01 PM INFO lbbd_cp_v1_solver - print: >>>Parallel subproblem time: 0.015s for 3 factories
04/28/2026 09:03:01 PM INFO lbbd_cp_v1_solver - print:  Added optimal optimality cut: factory=3, orders=[3, 8, 11, 13], cost=1013.76, theta_est=0.00
04/28/2026 09:03:01 PM INFO lbbd_cp_v1_solver - print: >>>Parallel subproblem time: 0.014s for 3 factories
04/28/2026 09:03:01 PM INFO lbbd_cp_v1_solver - print:  Added optimal optimality cut: factory=3, orders=[6, 8, 9, 13, 15], cost=806.16, theta_est=322.19
04/28/2026 09:03:01 PM INFO lbbd_cp_v1_solver - print: >>>Parallel subproblem time: 0.015s for 3 factories
04/28/2026 09:03:01 PM INFO lbbd_cp_v1_solver - print:  Added optimal optimality cut: factory=2, orders=[1, 4, 8, 10, 15], cost=906.33, theta_est=160.04
04/28/2026 09:03:01 PM INFO lbbd_cp_v1_solver - print:  Added optimal optimality cut: factory=3, orders=[6, 11, 14], cost=1198.85, theta_est=0.00
04/28/2026 09:03:01 PM INFO lbbd_cp_v1_solver - print: >>>Parallel subproblem time: 0.014s for 3 factories
04/28/2026 09:03:01 PM INFO lbbd_cp_v1_solver - print:  Added optimal optimality cut: factory=3, orders=[6, 8, 11, 13, 15], cost=1386.31, theta_est=203.05
04/28/2026 09:03:01 PM INFO lbbd_cp_v1_solver - print: >>>Parallel subproblem time: 0.015s for 3 factories
04/28/2026 09:03:01 PM INFO lbbd_cp_v1_solver - print:  Added optimal optimality cut: factory=3, orders=[6, 8, 9, 13], cost=350.71, theta_est=322.19
04/28/2026 09:03:01 PM INFO lbbd_cp_v1_solver - print: ***[Validated]*** obj=5450.13, delay=529.41, bound=5932.92, gap=8.86%, t=0.8s
04/28/2026 09:03:01 PM INFO lbbd_cp_v1_solver - print: >>>Parallel subproblem time: 0.016s for 3 factories
04/28/2026 09:03:01 PM INFO lbbd_cp_v1_solver - _callback: [Gurobi] H   99    76                    5450.0980004 5932.91771  8.86%   4.8    0s
04/28/2026 09:03:01 PM INFO lbbd_cp_v1_solver - print: >>>Parallel subproblem time: 0.014s for 3 factories
04/28/2026 09:03:01 PM INFO lbbd_cp_v1_solver - print:  Added optimal optimality cut: factory=2, orders=[7, 8, 10, 13], cost=239.28, theta_est=0.00
04/28/2026 09:03:01 PM INFO lbbd_cp_v1_solver - print: >>>Parallel subproblem time: 0.016s for 3 factories
04/28/2026 09:03:01 PM INFO lbbd_cp_v1_solver - print:  Added optimal optimality cut: factory=3, orders=[6, 8, 9, 15], cost=678.17, theta_est=322.19
04/28/2026 09:03:01 PM INFO lbbd_cp_v1_solver - print: >>>Parallel subproblem time: 0.016s for 3 factories
04/28/2026 09:03:01 PM INFO lbbd_cp_v1_solver - print:  Added optimal optimality cut: factory=3, orders=[3, 8, 14, 15], cost=1444.04, theta_est=83.67
04/28/2026 09:03:01 PM INFO lbbd_cp_v1_solver - print: >>>Parallel subproblem time: 0.014s for 3 factories
04/28/2026 09:03:01 PM INFO lbbd_cp_v1_solver - print:  Added optimal optimality cut: factory=3, orders=[6, 8, 11, 13], cost=648.62, theta_est=0.00
04/28/2026 09:03:01 PM INFO lbbd_cp_v1_solver - print: >>>Parallel subproblem time: 0.016s for 3 factories
04/28/2026 09:03:01 PM INFO lbbd_cp_v1_solver - print:  Added optimal optimality cut: factory=3, orders=[3, 8, 11], cost=415.37, theta_est=0.00
04/28/2026 09:03:01 PM INFO lbbd_cp_v1_solver - print: >>>Parallel subproblem time: 0.015s for 3 factories
04/28/2026 09:03:01 PM INFO lbbd_cp_v1_solver - print:  Added optimal optimality cut: factory=3, orders=[8, 11, 14], cost=1393.29, theta_est=0.00
04/28/2026 09:03:01 PM INFO lbbd_cp_v1_solver - print: >>>Parallel subproblem time: 0.013s for 3 factories
04/28/2026 09:03:01 PM INFO lbbd_cp_v1_solver - print:  Added optimal optimality cut: factory=3, orders=[8, 9, 13, 15], cost=172.91, theta_est=0.00
04/28/2026 09:03:01 PM INFO lbbd_cp_v1_solver - print: >>>Parallel subproblem time: 0.015s for 3 factories
04/28/2026 09:03:01 PM INFO lbbd_cp_v1_solver - print:  Added optimal optimality cut: factory=3, orders=[6, 8, 11, 15], cost=1009.07, theta_est=0.00
04/28/2026 09:03:01 PM INFO lbbd_cp_v1_solver - print: >>>Parallel subproblem time: 0.015s for 3 factories
04/28/2026 09:03:01 PM INFO lbbd_cp_v1_solver - print:  Added optimal optimality cut: factory=3, orders=[3, 8, 14], cost=702.93, theta_est=0.00
04/28/2026 09:03:01 PM INFO lbbd_cp_v1_solver - print: >>>Parallel subproblem time: 0.015s for 3 factories
04/28/2026 09:03:01 PM INFO lbbd_cp_v1_solver - print:  Added optimal optimality cut: factory=3, orders=[3, 6, 13, 14], cost=874.45, theta_est=0.00
04/28/2026 09:03:01 PM INFO lbbd_cp_v1_solver - print: >>>Parallel subproblem time: 0.016s for 3 factories
04/28/2026 09:03:01 PM INFO lbbd_cp_v1_solver - print:  Added optimal optimality cut: factory=3, orders=[6, 8, 11], cost=648.62, theta_est=0.00
04/28/2026 09:03:01 PM INFO lbbd_cp_v1_solver - print: >>>Parallel subproblem time: 0.011s for 3 factories
04/28/2026 09:03:01 PM INFO lbbd_cp_v1_solver - print:  Added optimal optimality cut: factory=3, orders=[3, 8, 9, 13], cost=471.53, theta_est=167.98
04/28/2026 09:03:01 PM INFO lbbd_cp_v1_solver - print: >>>Parallel subproblem time: 0.015s for 3 factories
04/28/2026 09:03:01 PM INFO lbbd_cp_v1_solver - print:  Added optimal optimality cut: factory=3, orders=[3, 9, 11, 13], cost=1004.16, theta_est=0.00
04/28/2026 09:03:01 PM INFO lbbd_cp_v1_solver - print: >>>Parallel subproblem time: 0.016s for 3 factories
04/28/2026 09:03:01 PM INFO lbbd_cp_v1_solver - _callback: [Gurobi] *  281    55               8    5450.1280004 5932.91771  8.86%   3.7    1s
04/28/2026 09:03:01 PM INFO lbbd_cp_v1_solver - print: >>>Parallel subproblem time: 0.013s for 3 factories
04/28/2026 09:03:01 PM INFO lbbd_cp_v1_solver - print:  Added optimal optimality cut: factory=3, orders=[3, 9, 11, 15], cost=1660.36, theta_est=0.00
04/28/2026 09:03:01 PM INFO lbbd_cp_v1_solver - print: >>>Parallel subproblem time: 0.016s for 3 factories
04/28/2026 09:03:01 PM INFO lbbd_cp_v1_solver - print: ***[Validated]*** obj=5627.11, delay=346.68, bound=5932.92, gap=5.43%, t=1.0s
04/28/2026 09:03:01 PM INFO lbbd_cp_v1_solver - _callback: [Gurobi] H  293    35                    5627.1134116 5932.91771  5.43%   3.7    1s
04/28/2026 09:03:01 PM INFO lbbd_cp_v1_solver - print: >>>Parallel subproblem time: 0.015s for 3 factories
04/28/2026 09:03:01 PM INFO lbbd_cp_v1_solver - print:  Added optimal optimality cut: factory=3, orders=[3, 6, 8, 13], cost=294.18, theta_est=0.00
04/28/2026 09:03:01 PM INFO lbbd_cp_v1_solver - print: >>>Parallel subproblem time: 0.015s for 3 factories
04/28/2026 09:03:01 PM INFO lbbd_cp_v1_solver - print:  Added optimal optimality cut: factory=3, orders=[3, 8, 9, 15], cost=852.83, theta_est=167.98
04/28/2026 09:03:01 PM INFO lbbd_cp_v1_solver - _callback: [Gurobi] Cutting planes:
04/28/2026 09:03:01 PM INFO lbbd_cp_v1_solver - _callback: [Gurobi] MIR: 31
04/28/2026 09:03:01 PM INFO lbbd_cp_v1_solver - _callback: [Gurobi] Lazy constraints: 78
04/28/2026 09:03:01 PM INFO lbbd_cp_v1_solver - _callback: [Gurobi] Explored 374 nodes (1381 simplex iterations) in 1.08 seconds (0.01 work units)
04/28/2026 09:03:01 PM INFO lbbd_cp_v1_solver - _callback: [Gurobi] Thread count was 20 (of 20 available processors)
04/28/2026 09:03:01 PM INFO lbbd_cp_v1_solver - _callback: [Gurobi] Solution count 7: 5627.11 5450.13 5328.3 ... -0
04/28/2026 09:03:01 PM INFO lbbd_cp_v1_solver - _callback: [Gurobi] Optimal solution found (tolerance 1.00e-04)
04/28/2026 09:03:01 PM INFO lbbd_cp_v1_solver - _callback: [Gurobi] Best objective 5.627113411587e+03, best bound 5.627113411587e+03, gap 0.0000%
04/28/2026 09:03:01 PM INFO lbbd_cp_v1_solver - _callback: [Gurobi] User-callback calls 1190, time in user-callback 1.03 sec
04/28/2026 09:03:01 PM INFO lbbd_cp_v1_solver - print: 
04/28/2026 09:03:01 PM INFO lbbd_cp_v1_solver - print: ============================================================
04/28/2026 09:03:01 PM INFO lbbd_cp_v1_solver - print: Branch-and-Check LBBD Summary
04/28/2026 09:03:01 PM INFO lbbd_cp_v1_solver - print: ============================================================
04/28/2026 09:03:01 PM INFO lbbd_cp_v1_solver - print: Status: OPTIMAL
04/28/2026 09:03:01 PM INFO lbbd_cp_v1_solver - print: Runtime: 1.08s
04/28/2026 09:03:01 PM INFO lbbd_cp_v1_solver - print: Iterations: 57
04/28/2026 09:03:01 PM INFO lbbd_cp_v1_solver - print: Initial UB: 11529.26
04/28/2026 09:03:01 PM INFO lbbd_cp_v1_solver - print: Module times (s): preprocess=0.081, enhancement=0.002, modeling=0.001, solving=1.084
04/28/2026 09:03:01 PM INFO lbbd_cp_v1_solver - print: Master time: 0.085s
04/28/2026 09:03:01 PM INFO lbbd_cp_v1_solver - print: Average subproblem time: 0.0146s
04/28/2026 09:03:01 PM INFO lbbd_cp_v1_solver - print: Lazy cuts added: 78
04/28/2026 09:03:01 PM INFO lbbd_cp_v1_solver - print:   - feasibility cuts: 0
04/28/2026 09:03:01 PM INFO lbbd_cp_v1_solver - print:   - optimality cuts: 78
04/28/2026 09:03:01 PM INFO lbbd_cp_v1_solver - print: Subproblems solved: 168
04/28/2026 09:03:01 PM INFO lbbd_cp_v1_solver - print: Subproblem time total: 2.45s
04/28/2026 09:03:01 PM INFO lbbd_cp_v1_solver - print: Subproblem time avg: 0.0146s
04/28/2026 09:03:01 PM INFO lbbd_cp_v1_solver - print: Best objective: 5627.11
04/28/2026 09:03:01 PM INFO lbbd_cp_v1_solver - print: Best bound: 5627.11
04/28/2026 09:03:01 PM INFO lbbd_cp_v1_solver - print: Final MIP gap: 0.00%
04/28/2026 09:03:01 PM INFO lbbd_cp_v1_solver - print: ============================================================
04/28/2026 09:03:01 PM INFO lbbd_cp_v1_solver - print: 
04/28/2026 09:03:01 PM INFO lbbd_cp_v1_solver - print: ------------------------------------------------------------
04/28/2026 09:03:01 PM INFO lbbd_cp_v1_solver - print: Subproblem Diagnostics
04/28/2026 09:03:01 PM INFO lbbd_cp_v1_solver - print: ------------------------------------------------------------
04/28/2026 09:03:01 PM INFO lbbd_cp_v1_solver - print: Total subproblems: 168
04/28/2026 09:03:01 PM INFO lbbd_cp_v1_solver - print:   optimal: 168 (100.00%)
04/28/2026 09:03:01 PM INFO lbbd_cp_v1_solver - print: Avg subproblem gap: 0.00% (n=137)
04/28/2026 09:03:01 PM INFO lbbd_cp_v1_solver - print: Avg subproblem objective: 520.598 (n=168)
04/28/2026 09:03:01 PM INFO lbbd_cp_v1_solver - print: Avg subproblem bound: 520.598 (n=168)
04/28/2026 09:03:01 PM INFO lbbd_cp_v1_solver - print: Avg (obj - bound) / |obj|: 0.00%
04/28/2026 09:03:01 PM INFO lbbd_cp_v1_solver - print: ------------------------------------------------------------
